DIMENSION: 9
EDGE_WEIGHT_TYPE: EXPLICIT
EDGE_WEIGHT_FORMAT: FULL_MATRIX
EDGE_WEIGHT_SECTION:
32767 76 32767 100 32767 32767 10 65 60 
76 32767 6 69 32767 32767 49 51 65 
32767 6 32767 67 32767 87 78 32767 32767 
100 69 67 32767 13 77 28 26 71 
32767 32767 32767 13 32767 77 88 29 82 
32767 32767 87 77 77 32767 32767 32767 32767 
10 49 78 28 88 32767 32767 22 65 
65 51 32767 26 29 32767 22 32767 32767 
60 65 32767 71 82 32767 65 32767 32767 
EOF